WARNING: for repeatability, setting FPU to use double precision
============================[ Problem Statistics ]=============================
|                                                                             |
|  Number of variables:        120049                                         |
|  Number of clauses:         3823658                                         |
|  Parse time:                   1.27 s                                       |
|  Eliminated clauses:           0.02 Mb                                      |
|  Simplification time:          1.32 s                                       |
|                                                                             |
============================[ Search Statistics ]==============================
| Conflicts |          ORIGINAL         |          LEARNT          | Progress |
|           |    Vars  Clauses Literals |    Limit  Clauses Lit/Cl |          |
===============================================================================
|       100 |   11518   181218   390504 |    66446      100    220 | 88.406 % |
|       250 |   11518   181218   390504 |    73091      250    191 | 88.406 % |
|       475 |   11518   181218   390504 |    80400      475    269 | 88.406 % |
|       812 |   11518   181218   390504 |    88440      812    322 | 88.406 % |
|      1318 |   11518   181218   390504 |    97284     1318    326 | 88.406 % |
|      2077 |   11518   181218   390504 |   107012     2077    305 | 88.406 % |
|      3216 |   11518   181218   390504 |   117714     3216    333 | 88.406 % |
|      4924 |   11518   181218   390504 |   129485     4924    300 | 88.406 % |
|      7486 |   11518   181218   390504 |   142434     7486    346 | 88.406 % |
|     11330 |   11518   181218   390504 |   156677    11330    333 | 88.406 % |
|     17096 |   11518   181218   390504 |   172345    17096    383 | 88.406 % |
|     25745 |   11518   181218   390504 |   189579    25745    419 | 88.406 % |
|     38719 |   11518   181218   390504 |   208537    38719    454 | 88.406 % |
|     58180 |   11518   181218   390504 |   229391    58180    465 | 88.406 % |
|     87372 |   11518   181218   390504 |   252330    87372    497 | 88.406 % |
|    131161 |   11518   181218   390504 |   277563   131161    517 | 88.406 % |
|    196845 |   11518   181218   390504 |   305320   196845    523 | 88.406 % |
|    295371 |   11518   181218   390504 |   335852   295371    557 | 88.406 % |
|    443160 |   11518   181218   390504 |   369437   443160    543 | 88.406 % |
|    664843 |   11518   181218   390504 |   406381   196465    580 | 88.406 % |
|    997368 |   11518   181218   390504 |   447019    24097   1223 | 88.406 % |
|   1496156 |   11518   181218   390504 |   491721   522885    737 | 88.406 % |
===============================================================================
restarts              : 4093
conflicts             : 2132755        (1528 /sec)
decisions             : 22985044       (0.00 % random) (16464 /sec)
propagations          : 916938677      (656779 /sec)
conflict literals     : 1366442000     (2.16 % deleted)
Memory used           : 2666.00 MB
CPU time              : 1396.12 s

SATISFIABLE
